
Gurobi 9.1.2 (win64, Java) logging started Sat Nov  6 11:02:00 2021

Academic license - for non-commercial use only - expires 2022-10-30
Gurobi Optimizer version 9.1.2 build v9.1.2rc0 (win64)
Thread count: 6 physical cores, 12 logical processors, using up to 12 threads
Optimize a model with 50 rows, 400 columns and 800 nonzeros
Model fingerprint: 0xf2fbb5f5
Variable types: 0 continuous, 400 integer (400 binary)
Coefficient statistics:
  Matrix range     [1e+00, 1e+03]
  Objective range  [4e+02, 1e+03]
  Bounds range     [1e+00, 1e+00]
  RHS range        [1e+00, 2e+03]
Found heuristic solution: objective 18306.000000
Presolve removed 0 rows and 107 columns
Presolve time: 0.00s
Presolved: 50 rows, 293 columns, 586 nonzeros
Variable types: 0 continuous, 293 integer (293 binary)
Presolved: 50 rows, 293 columns, 586 nonzeros


Root relaxation: objective 2.153072e+04, 127 iterations, 0.00 seconds

    Nodes    |    Current Node    |     Objective Bounds      |     Work
 Expl Unexpl |  Obj  Depth IntInf | Incumbent    BestBd   Gap | It/Node Time

     0     0 21530.7190    0   10 18306.0000 21530.7190  17.6%     -    0s
H    0     0                    20729.000000 21530.7190  3.87%     -    0s
H    0     0                    20750.000000 21530.7190  3.76%     -    0s
H    0     0                    21170.000000 21530.7190  1.70%     -    0s
     0     0 21234.0000    0   17 21170.0000 21234.0000  0.30%     -    0s
     0     0 21234.0000    0   15 21170.0000 21234.0000  0.30%     -    0s
     0     0 21234.0000    0   20 21170.0000 21234.0000  0.30%     -    0s
     0     0 21234.0000    0   11 21170.0000 21234.0000  0.30%     -    0s
H    0     0                    21199.000000 21234.0000  0.17%     -    0s
     0     2 21234.0000    0   10 21199.0000 21234.0000  0.17%     -    0s
H  543   455                    21200.000000 21234.0000  0.16%  10.8    0s
H  900   641                    21204.000000 21234.0000  0.14%  11.7    1s
H 1586   950                    21210.000000 21234.0000  0.11%  12.6    1s
H 1589   904                    21211.000000 21234.0000  0.11%  12.5    1s
H 1601   866                    21213.000000 21234.0000  0.10%  12.4    2s
H 1700   874                    21221.000133 21234.0000  0.06%  13.8    3s
H 5280  2252                    21223.000000 21234.0000  0.05%   9.3    4s
  9041  3787 21234.0000   53   25 21223.0000 21234.0000  0.05%  10.4    5s
H14727  5101                    21225.000000 21234.0000  0.04%  14.4    6s
H16321  4837                    21229.000000 21234.0000  0.02%  15.0    7s
H18120  5127                    21231.000000 21234.0000  0.01%  15.7    8s
 19384  5955 21234.0000   75   12 21231.0000 21234.0000  0.01%  15.2   10s
 44767 14872     cutoff   87      21231.0000 21234.0000  0.01%  13.7   15s
 62231 18754 21234.0000  106   13 21231.0000 21234.0000  0.01%  15.4   20s
 72687 19813 21233.0000  116   26 21231.0000 21234.0000  0.01%  16.7   25s
 80508 22713 21234.0000   70   11 21231.0000 21234.0000  0.01%  16.0   30s
 93430 25528     cutoff   82      21231.0000 21234.0000  0.01%  16.4   35s
H94061 23180                    21232.000000 21234.0000  0.01%  16.4   35s

Cutting planes:
  Gomory: 7
  Cover: 79
  Clique: 1
  MIR: 34
  StrongCG: 18
  Flow cover: 10
  Zero half: 1

Explored 94921 nodes (1567170 simplex iterations) in 35.08 seconds
Thread count was 12 (of 12 available processors)

Solution count 10: 21232 21231 21229 ... 21204

Optimal solution found (tolerance 1.00e-04)
Best objective 2.123200000000e+04, best bound 2.123400000000e+04, gap 0.0094%
